[306200, 305700, 298000, 298000, 298000, 298000, 293300, 293300, 293300, 293300, 293300, 293300, 293300, 293300, 293300, 293300, 293300, 293300, 293300, 291450, 291450, 291450, 291450, 291450, 291450, 291450, 291450, 291450, 291450, 291450, 291450, 291450, 291450, 291450, 291450, 291450, 291450, 291450, 291450, 291450, 291450, 291450, 291450, 291450, 291450, 291450, 282900, 282900, 282900, 282900, 282900, 282900, 282900, 282900, 282900, 282900, 282900, 282900, 282900, 282900, 278650, 278650, 278650, 278650, 278650, 278650, 278650, 278450, 278450, 278450, 278450, 278450, 278450, 278450, 278450, 276650, 276650, 276650, 276650, 276650, 276650, 276650, 276650, 276650, 276650, 274450, 274450, 274450, 274450, 274450, 274450, 274450, 274450, 274450, 266950, 266950, 266950, 266950, 266950, 266950, 266950, 266950, 266950, 266950, 266950, 266950, 266950, 266950, 266950, 266950, 266950, 266950, 266950, 266950, 266950, 266950, 266950, 266950, 266950, 266950, 266950, 266950, 266950, 266950, 266950, 266950, 266950, 266950, 266950, 266950, 266950, 266950, 266950, 266950, 266950, 266950, 266950, 266950, 266950, 266950, 266950, 266950, 266950, 266950, 266950, 266950, 266950, 266950, 266950, 266950, 266950, 266950, 266950, 266950, 266950, 266950, 266950, 266950, 266950, 266950, 266950, 266950, 266950, 266950, 266950, 266950, 265400, 265400, 265400, 265400, 265400, 265400, 265400, 265400, 265400, 265400, 265400, 265400, 265400, 265400, 265400, 265400, 265400, 265400, 265400, 265400, 265400, 265400, 265400, 265400, 265400, 265400, 265400, 265400, 265400, 265400, 265400, 265400, 265400, 265400, 265400, 265400, 265400, 265400, 265400, 265400, 265400, 265400, 265400, 265400, 265400, 265400, 265400, 265400, 265400, 265400, 265400, 265400, 265400, 265400, 265400, 265400, 265400, 265400, 265400, 265400, 265400, 265400, 265400, 265400, 265400, 265400, 265400, 265400, 265400, 265400, 265400, 265400, 265400, 265400, 265400, 265400, 265400, 265400, 265400, 265400, 265400, 265400, 265400, 265400, 265400, 265400, 265400, 265400, 265400, 265400, 265400, 265400, 265400, 265400, 265400, 265400, 265400, 265400, 265400, 265400, 265400, 265400, 265400, 265400, 265400, 265400, 265400, 265400, 265400, 265400, 265400, 265400, 265400, 265400, 265400, 265400, 265400, 265400, 265400, 265400, 265400, 265400, 265400, 265400, 265400, 265400, 265400, 265400, 265400, 265400, 265400, 265400, 265400, 265400]